qbf_easy_train/easy_4678_SAT.qdimacs
p cnf 41 123
a 34 12 15 0
e 1 2 3 4 5 6 7 8 9 10 11 13 14 16 17 18 19 20 21 22 23 24 25 26 27 28 29 30 31 32 33 35 36 37 38 39 40 41 0
3 1 0
3 -2 0
-1 2 -3 0
5 -3 0
5 -4 0
3 4 -5 0
-6 2 -7 0
6 -2 -7 0
-6 -2 7 0
6 2 7 0
-5 7 -8 0
5 -7 -8 0
-5 -7 8 0
5 7 8 0
9 6 -10 0
-9 -6 -10 0
9 -6 10 0
-9 6 10 0
6 10 -11 0
-6 -10 -11 0
6 -10 11 0
-6 10 11 0
13 9 0
13 4 0
-9 -4 -13 0
-14 -12 0
-14 -13 0
12 13 14 0
15 9 0
15 -7 0
-9 7 -15 0
-16 14 0
-16 15 0
-14 -15 16 0
-17 -11 0
-17 -16 0
11 16 17 0
8 17 -18 0
-8 -17 -18 0
8 -17 18 0
-8 17 18 0
20 9 0
20 19 0
-9 -19 -20 0
21 20 0
21 20 0
-20 -21 0
22 -5 0
22 2 0
5 -2 -22 0
21 22 -23 0
-21 -22 -23 0
21 -22 23 0
-21 22 23 0
24 -2 -25 0
-24 2 -25 0
24 2 25 0
-24 -2 25 0
9 -25 -26 0
-9 25 -26 0
9 25 26 0
-9 -25 26 0
-27 -23 0
-27 -26 0
23 26 27 0
-28 -7 0
-28 -24 0
7 24 28 0
-29 4 0
-29 28 0
-4 -28 29 0
-30 29 0
-30 -1 0
-29 1 30 0
31 -27 0
31 -30 0
27 30 -31 0
-2 19 -32 0
2 -19 -32 0
-2 -19 32 0
2 19 32 0
33 -29 0
33 -4 0
29 4 -33 0
-32 33 -34 0
32 -33 -34 0
-32 -33 34 0
32 33 34 0
31 34 -35 0
-31 -34 -35 0
31 -34 35 0
-31 34 35 0
18 35 -36 0
-18 -35 -36 0
18 -35 36 0
-18 35 36 0
37 -28 0
37 -20 0
28 20 -37 0
38 -28 0
38 -37 0
28 37 -38 0
39 37 0
39 -3 0
-37 3 -39 0
40 38 0
40 -39 0
-38 39 -40 0
-41 -36 0
-41 40 0
36 -40 41 0
37 40 -27 -13 0
34 -31 -1 35 37 -18 23 0
-10 -11 9 -40 0
-40 -34 17 4 11 -22 13 0
-20 6 -4 0
6 -2 -36 38 0
-25 -41 30 0
-36 16 -39 -26 -13 -9 -25 0
36 16 6 -9 14 -40 -10 0
-19 17 13 -28 -24 -30 -23 26 0
25 13 -5 38 0
41 0
