sat_easy_train/easy_4678_SAT.dimacs
p cnf 130 438
-1 -2 -3 0
1 2 -3 0
-1 2 3 0
1 -2 3 0
3 1 -4 0
-3 -1 -4 0
3 -1 4 0
-3 1 4 0
6 4 0
6 5 0
-4 -5 -6 0
9 -7 0
9 8 0
7 -8 -9 0
10 -6 0
10 -9 0
6 9 -10 0
-12 11 0
-12 1 0
-11 -1 12 0
-14 -12 0
-14 13 0
12 -13 14 0
10 -14 -15 0
-10 14 -15 0
10 14 15 0
-10 -14 15 0
-16 17 -18 0
16 -17 -18 0
-16 -17 18 0
16 17 18 0
19 18 0
19 -3 0
-18 3 -19 0
-17 -13 -20 0
17 13 -20 0
-17 13 20 0
17 -13 20 0
-21 18 0
-21 -20 0
-18 20 21 0
23 -13 0
23 22 0
13 -22 -23 0
24 -21 0
24 23 0
21 -23 -24 0
25 -19 0
25 24 0
19 -24 -25 0
-26 -15 0
-26 -25 0
15 25 26 0
-28 -27 0
-28 3 0
27 -3 28 0
-29 -13 0
-29 28 0
13 -28 29 0
-31 -29 0
-31 30 0
29 -30 31 0
32 28 0
32 31 0
-28 -31 -32 0
-34 33 0
-34 -17 0
-33 17 34 0
1 -33 -35 0
-1 33 -35 0
1 33 35 0
-1 -33 35 0
-36 34 0
-36 35 0
-34 -35 36 0
9 36 -37 0
-9 -36 -37 0
9 -36 37 0
-9 36 37 0
5 -38 -39 0
-5 38 -39 0
5 38 39 0
-5 -38 39 0
40 -39 0
40 33 0
39 -33 -40 0
16 27 -41 0
-16 -27 -41 0
16 -27 41 0
-16 27 41 0
-42 -41 0
-42 30 0
41 -30 42 0
43 9 0
43 -42 0
-9 42 -43 0
40 -43 -44 0
-40 43 -44 0
40 43 44 0
-40 -43 44 0
45 -37 0
45 44 0
37 -44 -45 0
32 -45 -46 0
-32 45 -46 0
32 45 46 0
-32 -45 46 0
27 -9 -47 0
-27 9 -47 0
27 9 47 0
-27 -9 47 0
48 2 0
48 -28 0
-2 28 -48 0
-48 -34 -49 0
48 34 -49 0
-48 34 49 0
48 -34 49 0
-47 49 -50 0
47 -49 -50 0
-47 -49 50 0
47 49 50 0
-51 3 0
-51 9 0
-3 -9 51 0
-52 51 0
-52 -43 0
-51 43 52 0
53 50 0
53 52 0
-50 -52 -53 0
54 -24 0
54 7 0
24 -7 -54 0
53 -54 -55 0
-53 54 -55 0
53 54 55 0
-53 -54 55 0
-34 -18 -56 0
34 18 -56 0
-34 18 56 0
34 -18 56 0
57 30 0
57 -56 0
-30 56 -57 0
57 -35 -58 0
-57 35 -58 0
57 35 58 0
-57 -35 58 0
-59 29 0
-59 58 0
-29 -58 59 0
-60 -8 0
-60 -56 0
8 56 60 0
-61 -37 0
-61 20 0
37 -20 61 0
62 -60 0
62 -61 0
60 61 -62 0
-63 -59 0
-63 62 0
59 -62 63 0
-55 -63 -64 0
55 63 -64 0
-55 63 64 0
55 -63 64 0
65 -46 0
65 -64 0
46 64 -65 0
-66 26 0
-66 65 0
-26 -65 66 0
67 42 0
67 13 0
-42 -13 -67 0
-68 -57 0
-68 -51 0
57 51 68 0
-69 -68 0
-69 -34 0
68 34 69 0
61 69 -70 0
-61 -69 -70 0
61 -69 70 0
-61 69 70 0
72 -47 0
72 -71 0
47 71 -72 0
-73 -70 0
-73 -72 0
70 72 73 0
74 16 0
74 57 0
-16 -57 -74 0
-74 -11 -75 0
74 11 -75 0
-74 11 75 0
74 -11 75 0
-76 -73 0
-76 75 0
73 -75 76 0
28 57 -77 0
-28 -57 -77 0
28 -57 77 0
-28 57 77 0
-78 28 0
-78 -77 0
-28 77 78 0
79 76 0
79 78 0
-76 -78 -79 0
80 -13 0
80 -30 0
13 30 -80 0
-29 80 -81 0
29 -80 -81 0
-29 -80 81 0
29 80 81 0
82 -12 0
82 4 0
12 -4 -82 0
83 -56 0
83 82 0
56 -82 -83 0
-84 -47 0
-84 68 0
47 -68 84 0
-85 83 0
-85 -84 0
-83 84 85 0
81 85 -86 0
-81 -85 -86 0
81 -85 86 0
-81 85 86 0
-87 32 0
-87 21 0
-32 -21 87 0
-88 -48 0
-88 40 0
48 -40 88 0
-89 61 0
-89 88 0
-61 -88 89 0
87 89 -90 0
-87 -89 -90 0
87 -89 90 0
-87 89 90 0
-91 86 0
-91 90 0
-86 -90 91 0
-92 -89 0
-92 -23 0
89 23 92 0
93 88 0
93 -92 0
-88 92 -93 0
-93 -74 -94 0
93 74 -94 0
-93 74 94 0
93 -74 94 0
96 -94 0
96 95 0
94 -95 -96 0
-91 96 -97 0
91 -96 -97 0
-91 -96 97 0
91 96 97 0
98 79 0
98 97 0
-79 -97 -98 0
-99 -51 0
-99 88 0
51 -88 99 0
-99 -61 -100 0
99 61 -100 0
-99 61 100 0
99 -61 100 0
101 -57 0
101 100 0
57 -100 -101 0
-102 17 0
-102 -27 0
-17 27 102 0
103 5 0
103 -2 0
-5 2 -103 0
-3 40 -104 0
3 -40 -104 0
-3 -40 104 0
3 40 104 0
105 -103 0
105 -104 0
103 104 -105 0
106 -102 0
106 105 0
102 -105 -106 0
-107 101 0
-107 -106 0
-101 106 107 0
-108 -98 0
-108 -107 0
98 107 108 0
67 -108 -109 0
-67 108 -109 0
67 108 109 0
-67 -108 109 0
-110 66 0
-110 -109 0
-66 109 110 0
-111 -42 0
-111 14 0
42 -14 111 0
103 87 -112 0
-103 -87 -112 0
103 -87 112 0
-103 87 112 0
-113 -48 0
-113 -47 0
48 47 113 0
-112 113 -114 0
112 -113 -114 0
-112 -113 114 0
112 113 114 0
-115 -35 0
-115 -13 0
35 13 115 0
-114 -115 -116 0
114 115 -116 0
-114 115 116 0
114 -115 116 0
-117 -30 0
-117 -40 0
30 40 117 0
118 -99 0
118 102 0
99 -102 -118 0
-41 -104 -119 0
41 104 -119 0
-41 104 119 0
41 -104 119 0
-120 -118 0
-120 119 0
118 -119 120 0
-121 117 0
-121 -120 0
-117 120 121 0
-122 116 0
-122 -121 0
-116 121 122 0
111 -122 -123 0
-111 122 -123 0
111 122 123 0
-111 -122 123 0
-44 -18 -124 0
44 18 -124 0
-44 18 124 0
44 -18 124 0
-57 36 -125 0
57 -36 -125 0
-57 -36 125 0
57 36 125 0
126 124 0
126 125 0
-124 -125 -126 0
-127 -80 0
-127 17 0
80 -17 127 0
126 127 -128 0
-126 -127 -128 0
126 -127 128 0
-126 127 128 0
-129 123 0
-129 -128 0
-123 128 129 0
-110 129 -130 0
110 -129 -130 0
-110 -129 130 0
110 129 130 0
-74 1 0
68 -22 114 0
49 -45 63 76 -54 0
26 98 51 -67 -89 -75 0
123 30 -96 10 79 50 0
53 -126 7 124 -41 13 0
52 98 123 43 81 0
113 44 -86 92 102 -16 0
26 114 -126 -70 -43 0
14 106 36 -2 112 0
-17 -19 37 7 -121 0
63 -114 0
-57 -49 -90 0
-128 14 -111 -54 31 -40 0
124 -76 0
59 67 80 0
-61 8 79 0
-69 -5 -26 -119 -109 0
-43 -129 60 -40 80 -21 0
-93 69 0
77 120 117 0
34 98 0
-112 101 0
-117 52 45 -89 0
32 20 0
-103 16 -12 0
68 -53 81 0
104 86 -53 0
105 3 -111 0
-51 64 109 0
51 -3 71 -119 -84 0
30 83 122 0
-99 110 -89 75 30 0
15 -51 -31 36 0
117 -80 55 -91 59 0
-8 -1 -63 -99 -13 0
3 -121 110 -87 0
50 -130 -54 -85 -75 0
-100 -25 110 0
43 13 123 0
128 -55 0
75 66 -19 98 0
-75 -127 -113 84 -82 0
113 -23 -54 0
89 -60 -122 119 74 0
114 11 0
-60 44 -76 23 -88 0
-89 45 -60 -75 95 0
121 -3 8 -58 -31 -19 0
50 -64 -14 -25 32 -2 0
-36 -130 -25 96 -52 0
-4 62 83 0
-109 40 20 -55 21 0
-92 122 0
-26 -28 100 77 0
83 18 93 0
108 117 -130 -15 55 0
130 0
